
Gurobi 9.1.2 (linux64) logging started Wed Nov 24 10:26:24 2021

Changed value of parameter LogFile to lemke_square_v-(1, 7).log-s20-l10.log
   Prev:   Default: 
Changed value of parameter Threads to 32
   Prev: 0  Min: 0  Max: 1024  Default: 0
Changed value of parameter TimeLimit to 3600.0
   Prev: inf  Min: 0.0  Max: inf  Default: inf
Changed value of parameter MIPGap to 0.4
   Prev: 0.0001  Min: 0.0  Max: inf  Default: 0.0001
Warning: variable name "X[(7, 4),(7, 3)]" has a space
Warning: constraint name "flow-constr-t0-v(3, 0)" has a space
Warning: to let Gurobi read it back, use rlp format
Gurobi Optimizer version 9.1.2 build v9.1.2rc0 (linux64)
Thread count: 16 physical cores, 32 logical processors, using up to 32 threads
Optimize a model with 6033 rows, 5440 columns and 20720 nonzeros
Model fingerprint: 0x0695bd03
Variable types: 0 continuous, 5440 integer (4800 binary)
Coefficient statistics:
  Matrix range     [1e+00, 1e+03]
  Objective range  [1e-01, 1e-01]
  Bounds range     [1e+00, 5e+02]
  RHS range        [1e+00, 1e+03]
Presolve removed 407 rows and 430 columns
Presolve time: 0.04s
Presolved: 5626 rows, 5010 columns, 18750 nonzeros
Variable types: 0 continuous, 5010 integer (4370 binary)

Root relaxation: objective 6.400000e+01, 128 iterations, 0.00 seconds

    Nodes    |    Current Node    |     Objective Bounds      |     Work
 Expl Unexpl |  Obj  Depth IntInf | Incumbent    BestBd   Gap | It/Node Time

     0     0   64.00000    0   44          -   64.00000      -     -    0s
     0     0   64.00000    0   84          -   64.00000      -     -    0s
     0     0   64.00000    0   92          -   64.00000      -     -    0s
     0     0   64.00000    0   50          -   64.00000      -     -    0s
     0     0   64.00000    0   48          -   64.00000      -     -    0s
     0     0   64.00000    0   38          -   64.00000      -     -    0s
     0     0   64.00000    0   38          -   64.00000      -     -    0s
     0     0   64.00000    0   42          -   64.00000      -     -    0s
H    0     0                    3166.0000000   64.00000  98.0%     -    0s
     0     0   64.00000    0   42 3166.00000   64.00000  98.0%     -    0s
H    0     0                     100.5000000   64.00000  36.3%     -    0s

Cutting planes:
  Cover: 55
  Implied bound: 66
  Clique: 15
  MIR: 24
  StrongCG: 1
  Flow cover: 15
  RLT: 8
  Relax-and-lift: 20

Explored 1 nodes (3083 simplex iterations) in 0.92 seconds
Thread count was 32 (of 32 available processors)

Solution count 2: 100.5 3166 

Optimal solution found (tolerance 4.00e-01)
Best objective 1.005000000000e+02, best bound 6.400000000000e+01, gap 36.3184%

Gurobi 9.1.2 (linux64) logging started Wed Nov 24 10:31:23 2021

Changed value of parameter LogFile to lemke_square_v-(1, 7).log-s20-l10.log
   Prev:   Default: 
Changed value of parameter Threads to 32
   Prev: 0  Min: 0  Max: 1024  Default: 0
Changed value of parameter TimeLimit to 3600.0
   Prev: inf  Min: 0.0  Max: inf  Default: inf
Changed value of parameter MIPGap to 0.4
   Prev: 0.0001  Min: 0.0  Max: inf  Default: 0.0001
Warning: variable name "X[(7, 4),(7, 3)]" has a space
Warning: constraint name "flow-constr-t0-v(3, 0)" has a space
Warning: to let Gurobi read it back, use rlp format
Gurobi Optimizer version 9.1.2 build v9.1.2rc0 (linux64)
Thread count: 16 physical cores, 32 logical processors, using up to 32 threads
Optimize a model with 6033 rows, 5440 columns and 20720 nonzeros
Model fingerprint: 0x0695bd03
Variable types: 0 continuous, 5440 integer (4800 binary)
Coefficient statistics:
  Matrix range     [1e+00, 1e+03]
  Objective range  [1e-01, 1e-01]
  Bounds range     [1e+00, 5e+02]
  RHS range        [1e+00, 1e+03]
Presolve removed 407 rows and 430 columns
Presolve time: 0.04s
Presolved: 5626 rows, 5010 columns, 18750 nonzeros
Variable types: 0 continuous, 5010 integer (4370 binary)

Root relaxation: objective 6.400000e+01, 128 iterations, 0.00 seconds

    Nodes    |    Current Node    |     Objective Bounds      |     Work
 Expl Unexpl |  Obj  Depth IntInf | Incumbent    BestBd   Gap | It/Node Time

     0     0   64.00000    0   44          -   64.00000      -     -    0s
     0     0   64.00000    0   84          -   64.00000      -     -    0s
     0     0   64.00000    0   92          -   64.00000      -     -    0s
     0     0   64.00000    0   50          -   64.00000      -     -    0s
     0     0   64.00000    0   48          -   64.00000      -     -    0s
     0     0   64.00000    0   38          -   64.00000      -     -    0s
     0     0   64.00000    0   38          -   64.00000      -     -    0s
     0     0   64.00000    0   42          -   64.00000      -     -    0s
H    0     0                    3166.0000000   64.00000  98.0%     -    0s
     0     0   64.00000    0   42 3166.00000   64.00000  98.0%     -    0s
H    0     0                     100.5000000   64.00000  36.3%     -    1s

Cutting planes:
  Cover: 55
  Implied bound: 66
  Clique: 15
  MIR: 24
  StrongCG: 1
  Flow cover: 15
  RLT: 8
  Relax-and-lift: 20

Explored 1 nodes (3083 simplex iterations) in 1.01 seconds
Thread count was 32 (of 32 available processors)

Solution count 2: 100.5 3166 

Optimal solution found (tolerance 4.00e-01)
Best objective 1.005000000000e+02, best bound 6.400000000000e+01, gap 36.3184%

Gurobi 9.1.2 (linux64) logging started Wed Nov 24 11:38:35 2021

Changed value of parameter LogFile to lemke_square_v-(1, 7).log-s20-l10.log
   Prev:   Default: 
Changed value of parameter Threads to 32
   Prev: 0  Min: 0  Max: 1024  Default: 0
Changed value of parameter TimeLimit to 3600.0
   Prev: inf  Min: 0.0  Max: inf  Default: inf
Changed value of parameter MIPGap to 0.34
   Prev: 0.0001  Min: 0.0  Max: inf  Default: 0.0001
Warning: variable name "X[(7, 4),(7, 3)]" has a space
Warning: constraint name "flow-constr-t0-v(3, 0)" has a space
Warning: to let Gurobi read it back, use rlp format
Gurobi Optimizer version 9.1.2 build v9.1.2rc0 (linux64)
Thread count: 16 physical cores, 32 logical processors, using up to 32 threads
Optimize a model with 6033 rows, 5440 columns and 20720 nonzeros
Model fingerprint: 0x0695bd03
Variable types: 0 continuous, 5440 integer (4800 binary)
Coefficient statistics:
  Matrix range     [1e+00, 1e+03]
  Objective range  [1e-01, 1e-01]
  Bounds range     [1e+00, 5e+02]
  RHS range        [1e+00, 1e+03]
Presolve removed 407 rows and 430 columns
Presolve time: 0.04s
Presolved: 5626 rows, 5010 columns, 18750 nonzeros
Variable types: 0 continuous, 5010 integer (4370 binary)

Root relaxation: objective 6.400000e+01, 128 iterations, 0.00 seconds

    Nodes    |    Current Node    |     Objective Bounds      |     Work
 Expl Unexpl |  Obj  Depth IntInf | Incumbent    BestBd   Gap | It/Node Time

     0     0   64.00000    0   44          -   64.00000      -     -    0s
     0     0   64.00000    0   84          -   64.00000      -     -    0s
     0     0   64.00000    0   92          -   64.00000      -     -    0s
     0     0   64.00000    0   50          -   64.00000      -     -    0s
     0     0   64.00000    0   48          -   64.00000      -     -    0s
     0     0   64.00000    0   38          -   64.00000      -     -    0s
     0     0   64.00000    0   38          -   64.00000      -     -    0s
     0     0   64.00000    0   42          -   64.00000      -     -    0s
H    0     0                    3166.0000000   64.00000  98.0%     -    0s
     0     0   64.00000    0   42 3166.00000   64.00000  98.0%     -    0s
H    0     0                     100.5000000   64.00000  36.3%     -    0s
H    0     0                      96.0000000   64.00000  33.3%     -    0s

Cutting planes:
  Cover: 55
  Implied bound: 66
  Clique: 15
  MIR: 24
  StrongCG: 1
  Flow cover: 15
  RLT: 8
  Relax-and-lift: 20

Explored 1 nodes (3083 simplex iterations) in 0.92 seconds
Thread count was 32 (of 32 available processors)

Solution count 3: 96 100.5 3166 

Optimal solution found (tolerance 3.40e-01)
Best objective 9.600000000000e+01, best bound 6.400000000000e+01, gap 33.3333%

Gurobi 9.1.2 (linux64) logging started Wed Nov 24 11:39:39 2021

Changed value of parameter LogFile to lemke_square_v-(1, 7).log-s20-l10.log
   Prev:   Default: 
Changed value of parameter Threads to 32
   Prev: 0  Min: 0  Max: 1024  Default: 0
Changed value of parameter TimeLimit to 3600.0
   Prev: inf  Min: 0.0  Max: inf  Default: inf
Changed value of parameter MIPGap to 0.3
   Prev: 0.0001  Min: 0.0  Max: inf  Default: 0.0001
Warning: variable name "X[(7, 4),(7, 3)]" has a space
Warning: constraint name "flow-constr-t0-v(3, 0)" has a space
Warning: to let Gurobi read it back, use rlp format
Gurobi Optimizer version 9.1.2 build v9.1.2rc0 (linux64)
Thread count: 16 physical cores, 32 logical processors, using up to 32 threads
Optimize a model with 6033 rows, 5440 columns and 20720 nonzeros
Model fingerprint: 0x0695bd03
Variable types: 0 continuous, 5440 integer (4800 binary)
Coefficient statistics:
  Matrix range     [1e+00, 1e+03]
  Objective range  [1e-01, 1e-01]
  Bounds range     [1e+00, 5e+02]
  RHS range        [1e+00, 1e+03]
Presolve removed 407 rows and 430 columns
Presolve time: 0.04s
Presolved: 5626 rows, 5010 columns, 18750 nonzeros
Variable types: 0 continuous, 5010 integer (4370 binary)

Root relaxation: objective 6.400000e+01, 128 iterations, 0.00 seconds

    Nodes    |    Current Node    |     Objective Bounds      |     Work
 Expl Unexpl |  Obj  Depth IntInf | Incumbent    BestBd   Gap | It/Node Time

     0     0   64.00000    0   44          -   64.00000      -     -    0s
     0     0   64.00000    0   84          -   64.00000      -     -    0s
     0     0   64.00000    0   92          -   64.00000      -     -    0s
     0     0   64.00000    0   50          -   64.00000      -     -    0s
     0     0   64.00000    0   48          -   64.00000      -     -    0s
     0     0   64.00000    0   38          -   64.00000      -     -    0s
     0     0   64.00000    0   38          -   64.00000      -     -    0s
     0     0   64.00000    0   42          -   64.00000      -     -    0s
H    0     0                    3166.0000000   64.00000  98.0%     -    0s
     0     0   64.00000    0   42 3166.00000   64.00000  98.0%     -    0s
H    0     0                     100.5000000   64.00000  36.3%     -    0s
H    0     0                      96.0000000   64.00000  33.3%     -    0s
     0     2   64.00000    0   42   96.00000   64.00000  33.3%     -    1s
H   31    64                      94.7000000   64.00000  32.4%  62.0    1s
H   36    64                      94.4000000   64.00000  32.2%  59.4    1s
H   63    96                      93.4000000   64.00000  31.5%  52.2    2s
H   65    96                      90.3000000   64.00000  29.1%  51.4    2s
H   66    96                      88.8000000   64.00000  27.9%  51.1    2s
H   68    96                      88.6000000   64.00000  27.8%  50.5    2s
H   70    96                      88.2000000   64.00000  27.4%  50.0    2s
H   78    96                      85.5000000   64.00000  25.1%  48.0    2s

Cutting planes:
  Gomory: 1
  Cover: 108
  Implied bound: 167
  Clique: 15
  MIR: 32
  StrongCG: 1
  Flow cover: 17
  Zero half: 1
  RLT: 12
  Relax-and-lift: 26

Explored 95 nodes (7345 simplex iterations) in 2.75 seconds
Thread count was 32 (of 32 available processors)

Solution count 10: 85.5 88.2 88.6 ... 100.5

Optimal solution found (tolerance 3.00e-01)
Best objective 8.550000000000e+01, best bound 6.400000000000e+01, gap 25.1462%
